n=4;
m=5;

r=3;
s=12;


num_o= 5;

def_o= array2d(1..num_o,1..4,
[ 1,1,12,3,
  2,3,11,3,
  3,4,9,2,
  3,1,13,2,
  4,1,12,4
]);

num_v= 4;

def_v= array2d(1..num_v,1..4,
[ 1,1,20,4,
  1,3,9,2,
  1,5,15,3,
  2,4,10,3
]);